2216956
19 10 34793
10 4 43367
4 17 90145
17 13 103707
13 7 61570
7 14 67784
14 18 105167
18 9 246240
9 15 21151
15 3 223221
3 8 540328
8 12 45505
12 16 27808
16 2 20583
2 1 14476
1 0 106843
0 6 35813
6 11 158459
11 5 255761
5 19 207524
